2 30
734 705 
0 65 56 76 74 32 71 2
1 3 12 50 55 54 45 2
2 50 50 14 21 46 7 2
3 88 95 39 42 33 16 2
4 37 44 96 87 55 77 1
5 74 70 29 24 35 14 2
6 42 33 63 60 46 50 1
7 14 8 52 46 62 74 1
8 76 69 40 44 10 75 1
9 11 18 83 73 23 12 2
10 21 12 49 58 55 48 2
11 33 23 26 34 23 29 2
12 62 64 19 15 95 86 2
13 94 92 36 31 20 42 1
14 62 65 100 99 61 48 1
15 16 9 40 31 51 46 2
16 87 89 72 76 57 44 2
17 52 52 49 39 64 57 1
18 5 1 34 24 23 62 2
19 52 62 41 37 11 67 1
20 44 45 57 52 82 19 1
21 100 96 57 62 37 43 2
22 96 96 38 47 12 3 1
23 43 43 15 17 19 30 1
24 13 17 38 35 6 13 1
25 14 8 19 23 33 60 2
26 88 86 16 21 14 14 2
27 30 40 77 78 85 27 2
28 80 74 95 96 13 96 2
29 43 39 12 10 2 26 2
